c A SAT instance generated from a 3-CNF formula that had 20 clauses and 10 variables
p cnf 10 20
-9 6 10 0
10 9 3 0
1 -4 -2 0
-6 -3 -7 0
9 -10 1 0
-7 -5 9 0
-10 -8 -1 0
-7 9 -4 0
-7 1 10 0
-10 -1 3 0
-2 7 -1 0
7 -9 8 0
2 -5 -3 0
7 -6 -10 0
8 -1 -2 0
1 -7 2 0
-10 -5 8 0
4 -1 -2 0
8 1 -7 0
-6 -3 -9 0
